c User generated cnf file
p cnf 12 17
9 -4 8 0 
4 -7 9 0 
10 3 -10 0 
5 -12 3 0 
9 -2 8 0 
6 5 -11 0 
11 4 -3 0 
5 -12 6 0 
6 -1 10 0 
10 -11 10 0 
6 8 -6 0 
1 -12 9 0 
4 3 -5 0 
10 -1 1 0 
7 3 -8 0 
9 5 -9 0 
4 -12 9 0 
